benchmarks/VRPTW/TSPTW/solution/n60w140.002.txt.solution
1 11 32 22 31 48 20 16 42 17 56 19 59 43 45 3 18 4 37 13 36 33 7 30 10 40 38 26 35 47 57 21 24 29 52 28 9 14 8 39 5 46 15 44 51 54 60 50 25 58 27 23 41 2 49 34 55 53 6 61 12 
462
